	164868.0	15000.0
	209103.0	3000.0
	209103.0	3000.0


	188273.0	0.0


	175038.0	18000.0
	175038.0	18000.0


	166417.0	24000.0
	179659.0	18000.0
	188273.0	0.0


	195550.0	15000.0
	209103.0	3000.0
	219999.0	0.0


	182000.0	15000.0
	182000.0	15000.0


	168132.0	24000.0
	195550.0	15000.0
	209103.0	3000.0


	188273.0	0.0


	175038.0	18000.0
	175038.0	18000.0
	189993.0	0.0


	209103.0	3000.0
	209103.0	3000.0
	219999.0	0.0


